Route #1: 17 51 6 2 30 45 27 52 34 46
Route #2: 35 14 59 66 65 38 11 53 7
Route #3: 8 19 54 13 57 15 37 20 70 60 71 69 36 47 5 29
Route #4: 48 21 61 22 64 42 41 56 23 43 1 62
Route #5: 74 28 73 33 63 16 49 24 18 50 25 55 31
Route #6: 12 40 3 44 32 9 39 72 10 58 26
Route #7: 67 4 68 75
Cost 733